c Created with the Wolfram Language : www.wolfram.com
c 
p edge 70 464
e 2 6
e 4 6
e 3 7
e 4 7
e 2 8
e 3 8
e 8 9
e 5 10
e 7 11
e 10 11
e 2 12
e 6 12
e 12 13
e 1 14
e 7 14
e 6 15
e 8 15
e 4 16
e 5 16
e 11 16
e 14 16
e 15 16
e 3 17
e 5 17
e 11 17
e 12 17
e 14 17
e 4 18
e 5 18
e 13 18
e 16 18
e 10 19
e 11 19
e 3 20
e 4 20
e 7 20
e 9 20
e 13 20
e 3 21
e 5 21
e 8 21
e 9 21
e 11 21
e 12 21
e 15 21
e 16 21
e 2 22
e 5 22
e 15 22
e 4 23
e 5 23
e 7 23
e 10 23
e 16 23
e 5 24
e 8 24
e 18 24
e 6 25
e 7 25
e 10 25
e 18 25
e 24 25
e 2 26
e 7 26
e 9 26
e 10 26
e 12 26
e 13 26
e 18 26
e 22 26
e 4 27
e 17 27
e 23 27
e 1 28
e 6 28
e 13 28
e 19 28
e 26 28
e 1 29
e 2 29
e 5 29
e 16 29
e 2 30
e 5 30
e 8 30
e 18 30
e 23 30
e 27 30
e 29 30
e 1 31
e 17 31
e 26 31
e 29 31
e 30 31
e 1 32
e 2 32
e 9 32
e 11 32
e 18 32
e 28 32
e 30 32
e 5 33
e 12 33
e 14 33
e 16 33
e 24 33
e 30 33
e 7 34
e 17 34
e 23 34
e 24 34
e 26 34
e 30 34
e 32 34
e 8 35
e 14 35
e 15 35
e 23 35
e 26 35
e 27 35
e 30 35
e 33 35
e 2 36
e 7 36
e 17 36
e 28 36
e 14 37
e 17 37
e 18 37
e 25 37
e 27 37
e 34 37
e 29 38
e 33 38
e 37 38
e 2 39
e 20 39
e 22 39
e 23 39
e 27 39
e 38 39
e 2 40
e 3 40
e 7 40
e 8 40
e 16 40
e 25 40
e 29 40
e 30 40
e 34 40
e 36 40
e 37 40
e 2 41
e 6 41
e 8 41
e 9 41
e 12 41
e 29 41
e 33 41
e 34 41
e 35 41
e 39 41
e 5 42
e 6 42
e 7 42
e 13 42
e 16 42
e 21 42
e 22 42
e 25 42
e 30 42
e 34 42
e 3 43
e 11 43
e 16 43
e 23 43
e 24 43
e 25 43
e 28 43
e 29 43
e 37 43
e 38 43
e 41 43
e 2 44
e 12 44
e 14 44
e 28 44
e 30 44
e 31 44
e 37 44
e 38 44
e 10 45
e 13 45
e 25 45
e 35 45
e 39 45
e 2 46
e 7 46
e 10 46
e 13 46
e 15 46
e 28 46
e 30 46
e 32 46
e 38 46
e 1 47
e 2 47
e 6 47
e 7 47
e 8 47
e 13 47
e 22 47
e 25 47
e 37 47
e 43 47
e 45 47
e 4 48
e 7 48
e 8 48
e 29 48
e 36 48
e 10 49
e 16 49
e 18 49
e 19 49
e 24 49
e 36 49
e 44 49
e 46 49
e 5 50
e 9 50
e 11 50
e 28 50
e 41 50
e 46 50
e 48 50
e 1 51
e 9 51
e 15 51
e 18 51
e 36 51
e 37 51
e 40 51
e 41 51
e 46 51
e 48 51
e 49 51
e 2 52
e 5 52
e 11 52
e 15 52
e 18 52
e 22 52
e 28 52
e 31 52
e 38 52
e 40 52
e 47 52
e 6 53
e 8 53
e 9 53
e 17 53
e 21 53
e 27 53
e 31 53
e 33 53
e 41 53
e 43 53
e 45 53
e 1 54
e 3 54
e 4 54
e 16 54
e 28 54
e 33 54
e 35 54
e 36 54
e 38 54
e 48 54
e 1 55
e 2 55
e 3 55
e 7 55
e 8 55
e 16 55
e 18 55
e 22 55
e 25 55
e 26 55
e 29 55
e 42 55
e 43 55
e 51 55
e 54 55
e 1 56
e 4 56
e 12 56
e 15 56
e 19 56
e 30 56
e 35 56
e 36 56
e 37 56
e 46 56
e 47 56
e 50 56
e 55 56
e 1 57
e 5 57
e 6 57
e 7 57
e 14 57
e 15 57
e 16 57
e 21 57
e 22 57
e 33 57
e 38 57
e 42 57
e 49 57
e 2 58
e 4 58
e 6 58
e 10 58
e 16 58
e 23 58
e 31 58
e 32 58
e 35 58
e 38 58
e 44 58
e 48 58
e 51 58
e 56 58
e 57 58
e 14 59
e 22 59
e 31 59
e 35 59
e 51 59
e 53 59
e 55 59
e 5 60
e 7 60
e 9 60
e 15 60
e 23 60
e 24 60
e 38 60
e 42 60
e 47 60
e 53 60
e 6 61
e 7 61
e 12 61
e 18 61
e 25 61
e 26 61
e 36 61
e 39 61
e 40 61
e 41 61
e 45 61
e 51 61
e 57 61
e 3 62
e 10 62
e 13 62
e 16 62
e 23 62
e 27 62
e 34 62
e 35 62
e 39 62
e 55 62
e 58 62
e 5 63
e 13 63
e 14 63
e 20 63
e 21 63
e 27 63
e 33 63
e 35 63
e 42 63
e 58 63
e 16 64
e 27 64
e 29 64
e 33 64
e 34 64
e 44 64
e 56 64
e 7 65
e 10 65
e 12 65
e 19 65
e 20 65
e 35 65
e 41 65
e 43 65
e 48 65
e 50 65
e 55 65
e 58 65
e 59 65
e 2 66
e 3 66
e 9 66
e 14 66
e 23 66
e 24 66
e 25 66
e 27 66
e 28 66
e 29 66
e 41 66
e 43 66
e 45 66
e 50 66
e 60 66
e 61 66
e 6 67
e 27 67
e 28 67
e 39 67
e 42 67
e 44 67
e 52 67
e 53 67
e 58 67
e 62 67
e 2 68
e 8 68
e 10 68
e 22 68
e 38 68
e 39 68
e 43 68
e 60 68
e 64 68
e 1 69
e 15 69
e 25 69
e 27 69
e 28 69
e 39 69
e 43 69
e 44 69
e 45 69
e 50 69
e 51 69
e 62 69
e 6 70
e 9 70
e 14 70
e 17 70
e 18 70
e 20 70
e 29 70
e 46 70
e 47 70
e 65 70
e 67 70
